StringID   Type       x          y          demand     ReadyTime  DueDate    ServiceTime  wp1    wp2    wp3  wp4
D0         d          35.0       35.0       0.0        0.0        230.0      0.0        
S0         f          35.0       35.0       0.0        0.0        230.0      0.0          0.6    1      1    1
S1         f          61.0       37.0       0.0        0.0        230.0      0.0          0.6    1      1    1
S2         f          74.0       39.0       0.0        0.0        230.0      0.0          0.6    1      1    1  
S3         f          47.0       57.0       0.0        0.0        230.0      0.0          0.2    0.3    0.2  0.2
S4         f          57.0       65.0       0.0        0.0        230.0      0.0          0.2    0.3    0.2  0.2
S5         f          29.0       59.0       0.0        0.0        230.0      0.0          0.6    1      1    1
S6         f          34.0       71.0       0.0        0.0        230.0      0.0          0.2    0.3    0.2  0.2
S7         f          22.0       58.0       0.0        0.0        230.0      0.0          0.6    1      1    1
S8         f          7.0        61.0       0.0        0.0        230.0      0.0          0.6    1      1    1
S9         f          18.0       41.0       0.0        0.0        230.0      0.0          0.6    1      1    1
S10        f          5.0        39.0       0.0        0.0        230.0      0.0          0.6    1      1    1
S11        f          14.0       20.0       0.0        0.0        230.0      0.0          0.2    0.3    0.2  0.2
S12        f          0.0        26.0       0.0        0.0        230.0      0.0          0.6    1      1    1
S13        f          24.0       25.0       0.0        0.0        230.0      0.0          0.6    1      1    1
S14        f          26.0       6.0        0.0        0.0        230.0      0.0          0.2    0.3    0.2  0.2 
S15        f          34.0       20.0       0.0        0.0        230.0      0.0          0.6    1      1    1
S16        f          41.0       5.0        0.0        0.0        230.0      0.0          0.6    1      1    1
S17        f          50.0       9.0        0.0        0.0        230.0      0.0          0.6    1      1    1
S18        f          61.0       14.0       0.0        0.0        230.0      0.0          0.2    0.3    0.2  0.2 
S19        f          62.0       21.0       0.0        0.0        230.0      0.0          0.2    0.3    0.2  0.2
S20        f          74.0       30.0       0.0        0.0        230.0      0.0          0.6    1      1    1
C1         c          41.0       49.0       10.0       26.0       56.0       10.0       
C2         c          35.0       17.0       7.0        87.0       117.0      10.0       
C3         c          55.0       45.0       13.0       23.0       53.0       10.0       
C4         c          55.0       20.0       19.0       97.0       127.0      10.0       
C5         c          15.0       30.0       26.0       153.0      183.0      10.0              
C31        c          31.0       52.0       27.0       18.0       48.0       10.0       
C32        c          35.0       69.0       23.0       49.0       79.0       10.0       
C33        c          53.0       52.0       11.0       44.0       74.0       10.0       
C34        c          65.0       55.0       14.0       72.0       102.0      10.0       
C35        c          63.0       65.0       8.0        115.0      145.0      10.0       
C50        c          47.0       47.0       13.0       108.0      138.0      10.0       
C51        c          49.0       58.0       10.0       163.0      193.0      10.0       
C52        c          27.0       43.0       9.0        101.0      131.0      10.0       
C53        c          37.0       31.0       14.0       157.0      187.0      10.0       
C54        c          57.0       29.0       18.0       78.0       108.0      10.0       
C55        c          63.0       23.0       2.0        70.0       100.0      10.0       
C56        c          53.0       12.0       6.0        48.0       78.0       10.0       
C57        c          32.0       12.0       7.0        166.0      196.0      10.0       
C58        c          36.0       26.0       18.0       102.0      132.0      10.0       
C59        c          21.0       24.0       28.0       91.0       121.0      10.0       
C96        c          22.0       27.0       11.0       18.0       48.0       10.0       
C97        c          25.0       21.0       12.0       132.0      162.0      10.0       
C98        c          19.0       21.0       10.0       94.0       124.0      10.0       
C99        c          20.0       26.0       9.0        128.0      158.0      10.0       
C100       c          18.0       18.0       17.0       78.0       108.0      10.0       

F Vehicle fuel tank capacity /9.4/
Q Vehicle load capacity /200.0/
r fuel consumption rate /0.155/
g inverse refueling rate /0.5/
v average Velocity /1.0/
